Maximize
  - 39 x0 - 45 x1 + 0 x2 + 0 x3 + 0 x4 + 0 x5 + 0 x6 + 0 x7 - 45 x8 - 34 x9
   - 18 x10 + 20 x11 + 0 x12 + 27 x13 + 15 x14 + 0 x15 + 0 x16 + 0 x17
   + 27 x18 + 8 x19 - 37 x20 + 47 x21 + 15 x22 + 0 x23 + 32 x24 + 0 x25
   + 23 x26 + 47 x27 - 25 x28 - 40 x29 - 33 x30 + 25 x31 - 47 x32 + 0 x33
   + 15 x34 + 0 x35 + 37 x36 + 0 x37 - 14 x38 + 17 x39 + [ - 7 x0 ^2
   - 88 x0 * x1 - 88 x0 * x3 - 94 x0 * x4 + 50 x0 * x6 + 48 x0 * x7
   + 52 x0 * x8 - 72 x0 * x9 + 80 x0 * x10 + 6 x0 * x12 - 36 x0 * x18
   - 74 x0 * x19 + 34 x0 * x23 + 22 x0 * x25 - 12 x0 * x27 + 26 x0 * x28
   + 4 x0 * x30 + 12 x0 * x32 - 32 x0 * x34 - 10 x0 * x38 + 94 x0 * x39
   + 26 x1 * x2 - 26 x1 * x3 - 82 x1 * x5 - 26 x1 * x6 - 42 x1 * x8
   + 64 x1 * x9 - 42 x1 * x11 - 24 x1 * x12 + 72 x1 * x13 - 82 x1 * x14
   + 28 x1 * x15 - 84 x1 * x21 + 2 x1 * x23 - 30 x1 * x24 - 46 x1 * x25
   - 64 x1 * x26 - 84 x1 * x28 + 84 x1 * x29 + 78 x1 * x31 + 42 x1 * x32
   + 62 x1 * x34 - 74 x1 * x35 - 20 x1 * x36 - 92 x1 * x39 - 24 x2 ^2
   - 84 x2 * x5 - 46 x2 * x6 + 14 x2 * x9 - 58 x2 * x14 - 56 x2 * x15
   - 6 x2 * x17 - 6 x2 * x18 - 54 x2 * x20 - 24 x2 * x23 - 70 x2 * x25
   + 70 x2 * x26 - 16 x2 * x29 + 80 x2 * x32 - 98 x2 * x33 - 8 x2 * x34
   - 94 x2 * x36 - 22 x2 * x37 + 14 x2 * x39 - 27 x3 ^2 - 4 x3 * x4
   + 6 x3 * x6 - 18 x3 * x7 + 4 x3 * x10 - 52 x3 * x12 + 30 x3 * x14
   + 2 x3 * x17 + 14 x3 * x20 - 16 x3 * x21 - 32 x3 * x23 - 56 x3 * x26
   + 76 x3 * x27 + 52 x3 * x28 + 30 x3 * x29 - 4 x3 * x30 + 28 x3 * x31
   - 36 x3 * x32 + 54 x3 * x33 - 96 x3 * x34 + 92 x3 * x36 + 86 x3 * x38
   + 46 x3 * x39 + 84 x4 * x10 + 82 x4 * x11 - 84 x4 * x13 + 80 x4 * x18
   + 94 x4 * x19 - 50 x4 * x20 + 6 x4 * x22 + 28 x4 * x23 - 10 x4 * x26
   + 82 x4 * x30 + 78 x4 * x31 - 94 x4 * x35 - 64 x4 * x37 + 14 x4 * x38
   + 10 x5 ^2 - 32 x5 * x7 + 6 x5 * x10 - 20 x5 * x11 + 82 x5 * x13
   + 68 x5 * x16 + 58 x5 * x17 - 22 x5 * x18 - 34 x5 * x19 + 76 x5 * x21
   - 16 x5 * x22 + 10 x5 * x23 + 16 x5 * x24 - 78 x5 * x25 - 10 x5 * x27
   - 84 x5 * x29 + 76 x5 * x30 - 8 x5 * x36 + 70 x5 * x37 + 62 x5 * x38
   - 72 x5 * x39 - 20 x6 * x7 + 92 x6 * x8 + 50 x6 * x10 - 96 x6 * x11
   + 24 x6 * x15 + 92 x6 * x17 - 56 x6 * x18 - 82 x6 * x19 + 16 x6 * x23
   + 76 x6 * x24 + 50 x6 * x32 - 76 x6 * x36 + 26 x6 * x37 - 26 x6 * x39
   - 56 x7 * x10 + 64 x7 * x11 + 92 x7 * x13 + 72 x7 * x14 + 60 x7 * x15
   - 72 x7 * x20 + 82 x7 * x21 - 6 x7 * x24 + 54 x7 * x25 - 90 x7 * x26
   + 98 x7 * x27 + 70 x7 * x30 + 40 x7 * x33 + 42 x7 * x35 - 60 x7 * x36
   + 84 x7 * x37 + 60 x7 * x38 - 26 x7 * x39 - 46 x8 ^2 + 8 x8 * x9
   - 74 x8 * x10 + 94 x8 * x16 + 98 x8 * x17 - 32 x8 * x18 - 50 x8 * x19
   - 14 x8 * x21 - 76 x8 * x23 - 74 x8 * x24 - 46 x8 * x25 - 90 x8 * x26
   + 76 x8 * x28 + 30 x8 * x32 - 68 x8 * x35 - 44 x8 * x36 - 36 x8 * x37
   - 10 x8 * x38 + 62 x8 * x39 + 96 x9 * x10 + 14 x9 * x11 - 26 x9 * x12
   - 18 x9 * x14 - 2 x9 * x15 + 56 x9 * x18 + 18 x9 * x19 + 42 x9 * x20
   + 72 x9 * x22 - 42 x9 * x24 + 18 x9 * x26 + 8 x9 * x29 + 96 x9 * x30
   - 22 x9 * x31 - 50 x9 * x32 + 54 x9 * x33 + 42 x9 * x35 + 64 x9 * x37
   - 88 x9 * x38 + 60 x10 * x14 + 6 x10 * x15 + 80 x10 * x20 - 28 x10 * x22
   + 16 x10 * x24 - 58 x10 * x25 + 20 x10 * x31 - 8 x10 * x33
   - 94 x10 * x39 + 9 x11 ^2 - 50 x11 * x15 + 74 x11 * x18 - 8 x11 * x20
   - 40 x11 * x21 + 10 x11 * x22 + 52 x11 * x23 - 44 x11 * x24
   - 98 x11 * x26 + 52 x11 * x27 - 46 x11 * x28 + 20 x11 * x30
   + 6 x11 * x31 - 6 x11 * x33 - 98 x11 * x34 + 90 x11 * x35 + 86 x11 * x37
   - 2 x11 * x38 - 22 x11 * x39 + 94 x12 * x15 + 32 x12 * x16
   + 42 x12 * x18 + 14 x12 * x19 - 14 x12 * x21 + 12 x12 * x22
   + 4 x12 * x24 + 48 x12 * x25 - 70 x12 * x27 + 56 x12 * x28
   + 72 x12 * x29 + 70 x12 * x30 + 70 x12 * x32 + 36 x12 * x34
   + 50 x12 * x36 - 36 x12 * x37 + 50 x12 * x38 + 10 x12 * x39 - 4 x13 ^2
   - 68 x13 * x14 + 62 x13 * x15 - 84 x13 * x16 - 46 x13 * x17
   + 10 x13 * x18 + 34 x13 * x19 + 10 x13 * x23 + 56 x13 * x24
   - 70 x13 * x25 + 26 x13 * x27 - 88 x13 * x30 - 62 x13 * x32
   + 72 x13 * x35 - 66 x13 * x38 + 72 x13 * x39 - 40 x14 ^2 + 20 x14 * x16
   + 80 x14 * x17 - 60 x14 * x18 - 68 x14 * x19 + 62 x14 * x20
   - 36 x14 * x21 - 18 x14 * x23 + 70 x14 * x24 + 32 x14 * x25
   - 88 x14 * x26 - 2 x14 * x27 + 8 x14 * x31 + 70 x14 * x33 + 88 x15 * x17
   + 44 x15 * x18 + 38 x15 * x20 + 32 x15 * x22 + 96 x15 * x23
   + 86 x15 * x25 + 80 x15 * x26 + 70 x15 * x31 + 22 x15 * x32
   - 2 x15 * x33 - 26 x15 * x34 - 92 x15 * x35 + 76 x15 * x36
   + 16 x15 * x37 + 4 x15 * x39 + 44 x16 ^2 - 20 x16 * x19 - 86 x16 * x20
   - 56 x16 * x21 - 50 x16 * x22 - 70 x16 * x23 + 16 x16 * x27
   + 26 x16 * x31 + 42 x16 * x32 + 76 x16 * x33 - 48 x16 * x36
   + 18 x16 * x37 + 74 x16 * x39 - 9 x17 ^2 - 26 x17 * x18 + 94 x17 * x20
   + 56 x17 * x21 + 64 x17 * x24 - 94 x17 * x26 + 74 x17 * x28
   + 88 x17 * x29 - 92 x17 * x32 - 12 x17 * x33 + 26 x17 * x35
   - 48 x17 * x36 - 66 x17 * x38 - 32 x18 ^2 - 4 x18 * x19 + 60 x18 * x21
   - 12 x18 * x22 + 52 x18 * x23 - 24 x18 * x24 + 54 x18 * x25
   + 62 x18 * x28 - 10 x18 * x29 - 24 x18 * x33 - 94 x18 * x34
   + 20 x18 * x35 + 14 x18 * x38 + 48 x19 ^2 + 56 x19 * x20 + 96 x19 * x21
   - 68 x19 * x22 - 98 x19 * x23 - 76 x19 * x24 - 70 x19 * x28
   + 94 x19 * x29 - 82 x19 * x31 + 14 x19 * x34 + 4 x19 * x36
   + 84 x19 * x37 - 16 x19 * x38 + 26 x19 * x39 - 11 x20 ^2 + 44 x20 * x23
   + 6 x20 * x26 - 76 x20 * x27 - 96 x20 * x34 + 76 x20 * x35
   - 68 x20 * x37 - 28 x20 * x38 - 70 x20 * x39 + 44 x21 * x22
   + 8 x21 * x25 + 56 x21 * x27 - 94 x21 * x30 - 46 x21 * x32
   + 74 x21 * x33 + 36 x21 * x37 - 35 x22 ^2 - 28 x22 * x27 - 50 x22 * x31
   + 26 x22 * x33 + 82 x22 * x34 - 20 x22 * x37 + 32 x22 * x38
   - 12 x22 * x39 + 49 x23 ^2 - 70 x23 * x25 + 78 x23 * x26 + 52 x23 * x27
   - 96 x23 * x28 + 32 x23 * x29 - 66 x23 * x30 + 82 x23 * x31
   - 28 x23 * x32 - 84 x23 * x34 - 78 x23 * x36 + 2 x23 * x38
   + 68 x24 * x30 - 24 x24 * x32 - 70 x24 * x33 - 22 x24 * x35
   - 66 x24 * x37 + 6 x24 * x38 - 18 x24 * x39 + 30 x25 ^2 - 88 x25 * x26
   + 10 x25 * x27 - 44 x25 * x28 + 72 x25 * x29 - 92 x25 * x30
   - 98 x25 * x34 + 86 x25 * x37 - 31 x26 ^2 + 62 x26 * x27 - 88 x26 * x28
   + 76 x26 * x30 + 82 x26 * x31 + 50 x26 * x34 - 28 x26 * x36
   + 62 x26 * x37 + 38 x26 * x38 + 48 x26 * x39 + 46 x27 ^2 - 68 x27 * x28
   + 70 x27 * x30 - 16 x27 * x32 - 58 x27 * x33 - 94 x27 * x34
   + 96 x27 * x35 + 76 x27 * x37 + 88 x27 * x39 + 66 x28 * x29
   - 46 x28 * x30 - 82 x28 * x31 - 82 x28 * x34 + 96 x28 * x39 - 31 x29 ^2
   + 16 x29 * x30 - 92 x29 * x32 + 68 x29 * x33 + 32 x29 * x35
   - 12 x29 * x38 + 16 x29 * x39 + 25 x30 ^2 + 18 x30 * x31 + 8 x30 * x32
   - 76 x30 * x34 + 40 x30 * x35 + 16 x30 * x37 + 70 x30 * x38 + 13 x31 ^2
   - 48 x31 * x33 - 88 x31 * x34 + 66 x31 * x35 + 44 x31 * x36
   - 30 x31 * x38 - 92 x32 * x33 - 96 x32 * x34 + 24 x32 * x35
   - 60 x32 * x36 + 78 x32 * x38 - 74 x32 * x39 + 12 x33 ^2 + 44 x33 * x34
   - 28 x33 * x37 - 10 x33 * x38 - 14 x33 * x39 + 28 x34 ^2 + 98 x34 * x35
   - 86 x34 * x36 - 2 x34 * x37 - 18 x34 * x39 - 49 x35 ^2 - 40 x35 * x38
   - 13 x36 ^2 + 18 x36 * x37 + 2 x36 * x39 + 38 x37 ^2 + 94 x37 * x39
   + 6 x38 ^2 + 16 x39 ^2 ] / 2 
Subject To
Bounds
 x0 <= 1
 x1 <= 1
 x2 <= 1
 x3 <= 1
 x4 <= 1
 x5 <= 1
 x6 <= 1
 x7 <= 1
 x8 <= 1
 x9 <= 1
 x10 <= 1
 x11 <= 1
 x12 <= 1
 x13 <= 1
 x14 <= 1
 x15 <= 1
 x16 <= 1
 x17 <= 1
 x18 <= 1
 x19 <= 1
 x20 <= 1
 x21 <= 1
 x22 <= 1
 x23 <= 1
 x24 <= 1
 x25 <= 1
 x26 <= 1
 x27 <= 1
 x28 <= 1
 x29 <= 1
 x30 <= 1
 x31 <= 1
 x32 <= 1
 x33 <= 1
 x34 <= 1
 x35 <= 1
 x36 <= 1
 x37 <= 1
 x38 <= 1
 x39 <= 1
End
